c instance by G2
c solution = 0001110000010101010000100
c Known solution cost is 1218 
p cnf 25 30
w 47 20 78 70 3 16 9 47 11 74 91 97 35 94 20 4 84 33 16 58 54 73 23 85 76
19 14 -12 0
-23 -1 -12 0
-22 15 9 0
10 -21 11 0
-11 -18 -16 0
-16 -2 -5 0
1 18 20 0
1 -14 -3 0
3 -10 13 0
16 -4 -5 0
-4 -25 2 0
1 25 -20 0
18 -22 3 0
24 -10 -22 0
20 8 5 0
-16 6 1 0
22 8 12 0
-18 -17 -6 0
7 18 19 0
21 2 5 0
-24 9 -4 0
19 -15 21 0
25 -18 4 0
-8 25 -17 0
25 -13 20 0
20 17 23 0
21 11 -8 0
-7 9 24 0
-14 -19 -12 0
-9 15 25 0
